students = 100;
supervisors = 20;
timeslots = 8;
sessions = 3;
max_students_per_session = 6;
max_students_per_supervisor = 7;
max_supervisors_per_session = 6;
min_supervisors_per_session = 2;
availability = array2d(1..20, 1..8, [true, true, true, true, false, false, true,
    false, false, true, true, true, true, true, true, false, false,
    true, true, true, true, true, true, true, false, true, true, true,
    true, false, true, true, true, false, true, true, true, true,
    false, false, true, false, false, true, true, false, false, true,
    true, true, false, true, false, true, true, false, true, true,
    true, false, true, true, false, true, true, true, false, false,
    true, true, true, false, true, true, false, true, true, true,
    true, true, true, true, true, true, true, false, true, false,
    false, true, true, true, true, true, false, true, true, true,
    true, true, true, false, true, false, false, false, true, true,
    false, true, true, true, true, false, true, true, true, false,
    true, true, true, false, true, false, true, true, false, true,
    true, false, true, false, false, true, true, false, true, false,
    true, true, true, true, false, true, true, false, false, false,
    false, true, false, true, true, true, true, false, true, true,
    false, false]);